(set-option :print-success false)
(set-logic QF_UF)
(declare-sort x101 0)
(declare-sort x76 0)
(declare-fun x110 () x76)
(declare-fun x189 () x76)
(declare-fun x259 () x76)
(declare-fun x142 () x76)
(declare-fun x133 () x76)
(declare-fun x138 (x76 x76) x76)
(declare-fun x85 (x76 x76) x76)
(declare-fun x194 () x76)
(assert (let ((x81 (x138 x194 x194))) (let ((x204 (x138 x81 x194))) (let ((x21 (x138 x204 x194))) (let ((x210 (x138 x21 x81))) (let ((x181 (x138 x210 x204))) (not (and (and (not (= x210 x204)) (and (not (= x194 x204)) (and (and (not (= x181 x204)) (and (not (= x21 x204)) (and (not (= x210 x204)) (and (and (not (= x81 x210)) (and (and (and (not (= x204 x194)) (and (and (not (= x81 x194)) (and (and (and (not (= x204 x81)) (and (not (= x210 x81)) (and (and (and (not (= x81 x21)) (and (not (= x181 x204)) (and (and (not (= x181 x194)) (and (and (not (= x181 x21)) (and (and (and (not (= x21 x194)) (and (not (= x81 x21)) (not (= x21 x181)))) (not (= x21 x210))) (not (= x204 x21)))) (not (= x181 x81)))) (not (= x210 x181))))) (not (= x81 x181))) (not (= x81 x194))))) (not (= x194 x21))) (not (= x194 x181)))) (not (= x194 x210)))) (not (= x21 x210))) (not (= x181 x210)))) (not (= x194 x210)))))) (not (= x204 x81))))) (and (= (x138 x204 x204) x194) (and (and (= x21 x21) (and (= x81 (x138 x204 x81)) (and (= (x138 x204 x181) x210) (and (and (and (= x81 (x138 x210 x210)) (and (and (and (and (and (and (and (and (= (x138 x194 x81) x204) (and (= (x138 x194 x181) x181) (and (= x21 (x138 x194 x21)) (and (= x81 (x138 x81 x204)) (and (and (and (and (and (and (= (x138 x181 x204) x204) (and (and (= (x138 x181 x194) x181) (and (and (and (= (x138 x181 x21) x81) (and (= x21 (x138 x21 x204)) (and (= x204 (x138 x21 x210)) (and (and (= x210 x210) (and (= x181 (x138 x21 x21)) (= x81 (x138 x21 x181)))) (= (x138 x21 x194) x194))))) (= (x138 x181 x181) x21)) (= x194 (x138 x181 x81)))) (= (x138 x181 x210) x210))) (= x210 (x138 x81 x21))) (= x194 (x138 x81 x181))) (= (x138 x81 x81) x181)) (= x204 x204)) (= (x138 x81 x210) x21)))))) (= x81 x81)) (= x194 (x138 x194 x210))) (= x210 (x138 x194 x204))) (= x194 (x138 x210 x21))) (= x204 (x138 x210 x181))) (= (x138 x210 x81) x21)) (= (x138 x210 x194) x210))) (= x181 x181)) (= x204 (x138 x204 x21)))))) (= (x138 x204 x210) x181)))))))))))
(assert (let ((x169 (x138 x133 x142)) (x185 (x138 x133 x110)) (x130 (x138 x194 x133)) (x46 (x138 x194 x110)) (x181 (x138 x189 x189)) (x17 (x138 x189 x259)) (x42 (x138 x259 x189)) (x70 (x138 x110 x189)) (x182 (x138 x189 x194)) (x156 (x138 x189 x110)) (x24 (x138 x110 x133)) (x198 (x138 x194 x259)) (x81 (x138 x142 x142)) (x175 (x138 x189 x133)) (x203 (x138 x259 x133)) (x253 (x138 x110 x142)) (x127 (x138 x110 x194)) (x71 (x138 x133 x194)) (x173 (x138 x110 x110)) (x21 (x138 x189 x142)) (x195 (x138 x133 x189)) (x45 (x138 x194 x194)) (x6 (x138 x142 x194)) (x217 (x138 x194 x189)) (x39 (x138 x133 x133)) (x208 (x138 x142 x133)) (x176 (x138 x110 x259)) (x204 (x138 x142 x189)) (x114 (x138 x133 x259)) (x186 (x138 x259 x142)) (x237 (x138 x259 x110)) (x86 (x138 x259 x259)) (x116 (x138 x194 x142)) (x202 (x138 x142 x259)) (x210 (x138 x142 x110)) (x111 (x138 x259 x194))) (or (and (= x133 (x138 x39 x39)) (and (and (and (and (= x142 (x138 x208 x169)) (= x189 (x138 x175 x195))) (= x110 (x138 x24 x185))) (= (x138 x130 x71) x194)) (= x259 (x138 x203 x114)))) (or (or (or (and (and (and (= (x138 x46 x127) x194) (and (= (x138 x173 x173) x110) (and (= x189 (x138 x156 x70)) (= (x138 x210 x253) x142)))) (= x259 (x138 x237 x176))) (= (x138 x185 x24) x133)) (or (and (and (and (and (= (x138 x253 x210) x110) (and (= x142 (x138 x81 x81)) (= x189 (x138 x21 x204)))) (= x194 (x138 x116 x6))) (= (x138 x186 x202) x259)) (= x133 (x138 x169 x208))) (and (and (= x259 (x138 x42 x17)) (and (= (x138 x217 x182) x194) (and (and (= (x138 x181 x181) x189) (= (x138 x204 x21) x142)) (= x110 (x138 x70 x156))))) (= x133 (x138 x195 x175))))) (and (= (x138 x71 x130) x133) (and (and (= (x138 x45 x45) x194) (and (and (= x142 (x138 x6 x116)) (= (x138 x182 x217) x189)) (= (x138 x127 x46) x110))) (= x259 (x138 x111 x198))))) (and (and (= (x138 x86 x86) x259) (and (and (and (= x142 (x138 x202 x186)) (= x189 (x138 x17 x42))) (= (x138 x176 x237) x110)) (= (x138 x198 x111) x194))) (= (x138 x114 x203) x133))))))
(assert (let ((x111 (x138 x133 x194)) (x24 (x138 x133 x259)) (x114 (x138 x259 x133)) (x175 (x138 x194 x259)) (x195 (x138 x259 x259)) (x6 (x138 x194 x189)) (x81 (x138 x142 x142)) (x42 (x138 x189 x194)) (x198 (x138 x259 x194)) (x21 (x138 x110 x142)) (x127 (x138 x189 x110)) (x86 (x138 x142 x259)) (x116 (x138 x259 x189)) (x70 (x138 x189 x189)) (x46 (x138 x110 x110)) (x173 (x138 x110 x189)) (x253 (x138 x133 x142)) (x237 (x138 x194 x194)) (x186 (x138 x133 x110)) (x210 (x138 x259 x142)) (x182 (x138 x133 x189)) (x204 (x138 x189 x142)) (x217 (x138 x142 x110)) (x17 (x138 x142 x194)) (x39 (x138 x133 x133)) (x202 (x138 x259 x110)) (x130 (x138 x189 x133)) (x176 (x138 x110 x194)) (x208 (x138 x189 x259)) (x181 (x138 x194 x142)) (x203 (x138 x194 x133)) (x71 (x138 x110 x133)) (x156 (x138 x142 x189)) (x185 (x138 x142 x133)) (x45 (x138 x194 x110)) (x169 (x138 x110 x259))) (and (and (and (and (and (not (= x24 x111)) (and (and (not (= x186 x24)) (and (not (= x186 x111)) (and (not (= x182 x39)) (and (not (= x24 x182)) (and (and (not (= x186 x182)) (and (and (not (= x24 x253)) (and (not (= x253 x111)) (and (not (= x253 x182)) (not (= x253 x186))))) (not (= x253 x39)))) (not (= x182 x111))))))) (not (= x186 x39)))) (not (= x39 x111))) (not (= x39 x24))) (and (and (and (and (not (= x203 x237)) (and (not (= x237 x175)) (and (not (= x45 x203)) (and (not (= x175 x45)) (and (not (= x237 x45)) (and (and (and (and (not (= x45 x6)) (and (and (and (not (= x181 x237)) (and (not (= x6 x181)) (not (= x181 x45)))) (not (= x175 x181))) (not (= x203 x181)))) (not (= x237 x6))) (not (= x6 x175))) (not (= x6 x203)))))))) (not (= x203 x175))) (and (and (and (and (and (not (= x42 x208)) (and (not (= x130 x127)) (and (not (= x208 x127)) (and (and (not (= x70 x130)) (and (not (= x70 x208)) (and (and (and (not (= x204 x130)) (and (not (= x208 x204)) (and (and (not (= x70 x204)) (not (= x204 x127))) (not (= x204 x42))))) (not (= x127 x70))) (not (= x70 x42))))) (not (= x42 x127)))))) (not (= x42 x130))) (not (= x208 x130))) (and (and (and (not (= x86 x17)) (and (and (not (= x217 x86)) (and (not (= x17 x217)) (and (and (not (= x86 x156)) (and (and (and (not (= x185 x81)) (and (not (= x81 x86)) (and (and (not (= x156 x81)) (not (= x217 x81))) (not (= x81 x17))))) (not (= x217 x156))) (not (= x17 x156)))) (not (= x185 x156))))) (not (= x185 x217)))) (not (= x185 x17))) (not (= x86 x185)))) (and (not (= x169 x71)) (and (and (and (and (not (= x169 x46)) (and (not (= x46 x176)) (and (not (= x173 x71)) (and (and (not (= x173 x176)) (and (not (= x173 x46)) (and (and (not (= x21 x169)) (and (and (not (= x46 x21)) (not (= x173 x21))) (not (= x21 x176)))) (not (= x71 x21))))) (not (= x173 x169)))))) (not (= x46 x71))) (not (= x169 x176))) (not (= x176 x71)))))) (and (not (= x195 x114)) (and (and (and (and (and (and (and (not (= x195 x116)) (and (and (not (= x116 x202)) (and (not (= x210 x114)) (and (not (= x195 x210)) (and (not (= x210 x198)) (and (not (= x210 x116)) (not (= x202 x210))))))) (not (= x198 x116)))) (not (= x116 x114))) (not (= x202 x198))) (not (= x195 x202))) (not (= x202 x114))) (not (= x195 x198))) (not (= x198 x114)))))) (and (and (and (not (= x195 x24)) (and (and (not (= x175 x195)) (and (not (= x169 x24)) (and (not (= x195 x169)) (and (and (and (not (= x195 x208)) (and (and (and (not (= x24 x86)) (and (not (= x86 x195)) (and (and (not (= x86 x169)) (not (= x208 x86))) (not (= x86 x175))))) (not (= x208 x169))) (not (= x208 x175)))) (not (= x208 x24))) (not (= x175 x169)))))) (not (= x175 x24)))) (and (and (and (and (not (= x253 x210)) (and (not (= x181 x253)) (and (not (= x210 x181)) (and (and (not (= x21 x210)) (and (and (not (= x253 x204)) (and (not (= x210 x204)) (and (not (= x181 x204)) (and (and (and (not (= x210 x81)) (and (not (= x81 x181)) (and (not (= x81 x204)) (not (= x21 x81))))) (not (= x253 x81))) (not (= x204 x21)))))) (not (= x21 x181)))) (not (= x253 x21)))))) (and (and (and (not (= x6 x116)) (and (not (= x173 x182)) (and (not (= x116 x173)) (and (and (not (= x182 x70)) (and (not (= x116 x70)) (and (not (= x70 x6)) (and (not (= x70 x173)) (and (and (and (and (not (= x156 x70)) (not (= x173 x156))) (not (= x6 x156))) (not (= x156 x116))) (not (= x156 x182))))))) (not (= x6 x173)))))) (not (= x182 x6))) (not (= x182 x116)))) (and (and (and (and (not (= x186 x46)) (and (and (and (not (= x186 x127)) (and (and (not (= x127 x45)) (and (and (and (and (and (not (= x46 x217)) (not (= x127 x217))) (not (= x45 x217))) (not (= x202 x217))) (not (= x186 x217))) (not (= x127 x46)))) (not (= x202 x127)))) (not (= x46 x45))) (not (= x202 x46)))) (not (= x202 x45))) (not (= x45 x186))) (not (= x202 x186)))) (and (not (= x111 x198)) (and (and (not (= x237 x198)) (and (and (and (not (= x237 x176)) (and (not (= x42 x111)) (and (and (and (not (= x176 x42)) (and (not (= x17 x111)) (and (and (not (= x237 x17)) (and (not (= x17 x176)) (not (= x17 x42)))) (not (= x198 x17))))) (not (= x42 x237))) (not (= x198 x42))))) (not (= x198 x176))) (not (= x176 x111)))) (not (= x237 x111)))))) (and (not (= x114 x39)) (and (not (= x39 x203)) (and (not (= x203 x114)) (and (and (and (and (and (and (not (= x203 x130)) (and (and (and (not (= x185 x114)) (and (and (not (= x185 x130)) (not (= x185 x71))) (not (= x185 x203)))) (not (= x185 x39))) (not (= x71 x130)))) (not (= x130 x114))) (not (= x39 x130))) (not (= x203 x71))) (not (= x114 x71))) (not (= x71 x39))))))))))
(assert (let ((x175 (x138 x194 x259)) (x127 (x138 x189 x110)) (x182 (x138 x133 x189)) (x39 (x138 x133 x133)) (x204 (x138 x189 x142)) (x116 (x138 x259 x189)) (x46 (x138 x110 x110)) (x24 (x138 x133 x259)) (x176 (x138 x110 x194)) (x186 (x138 x133 x110)) (x169 (x138 x110 x259)) (x71 (x138 x110 x133)) (x253 (x138 x133 x142)) (x195 (x138 x259 x259)) (x17 (x138 x142 x194)) (x208 (x138 x189 x259)) (x45 (x138 x194 x110)) (x21 (x138 x110 x142)) (x42 (x138 x189 x194)) (x173 (x138 x110 x189)) (x156 (x138 x142 x189)) (x198 (x138 x259 x194)) (x6 (x138 x194 x189)) (x237 (x138 x194 x194)) (x217 (x138 x142 x110)) (x185 (x138 x142 x133)) (x210 (x138 x259 x142)) (x111 (x138 x133 x194)) (x202 (x138 x259 x110)) (x203 (x138 x194 x133)) (x114 (x138 x259 x133)) (x181 (x138 x194 x142)) (x130 (x138 x189 x133)) (x81 (x138 x142 x142)) (x86 (x138 x142 x259)) (x70 (x138 x189 x189))) (and (or (= x39 (x138 x39 x133)) (or (= (x138 x114 x259) x114) (or (= x203 (x138 x203 x194)) (or (= x71 (x138 x71 x110)) (or (= (x138 x130 x189) x130) (= x185 (x138 x185 x142))))))) (and (and (and (and (or (= x182 (x138 x182 x133)) (or (or (= x6 (x138 x6 x194)) (or (= x173 (x138 x173 x110)) (or (= (x138 x70 x189) x70) (= (x138 x156 x142) x156)))) (= (x138 x116 x259) x116))) (or (= (x138 x253 x133) x253) (or (= (x138 x210 x259) x210) (or (or (= (x138 x21 x110) x21) (or (= x204 (x138 x204 x189)) (= (x138 x81 x142) x81))) (= x181 (x138 x181 x194)))))) (or (= x186 (x138 x186 x133)) (or (or (= x45 (x138 x45 x194)) (or (or (= x217 (x138 x217 x142)) (= (x138 x127 x189) x127)) (= x46 (x138 x46 x110)))) (= x202 (x138 x202 x259))))) (or (= (x138 x111 x133) x111) (or (= x198 (x138 x198 x259)) (or (or (= (x138 x176 x110) x176) (or (= x17 (x138 x17 x142)) (= x42 (x138 x42 x189)))) (= (x138 x237 x194) x237))))) (or (= (x138 x24 x133) x24) (or (or (or (or (= (x138 x208 x189) x208) (= x86 (x138 x86 x142))) (= x169 (x138 x169 x110))) (= x175 (x138 x175 x194))) (= (x138 x195 x259) x195)))))))
(assert (let ((x81 (x138 x110 x110))) (let ((x204 (x138 x81 x110))) (let ((x21 (x138 x204 x110))) (let ((x210 (x138 x21 x81))) (let ((x181 (x138 x210 x204))) (not (and (and (not (= x210 x204)) (and (not (= x204 x110)) (and (and (and (and (and (not (= x110 x210)) (and (and (and (not (= x210 x21)) (and (and (and (and (and (and (and (and (and (and (and (and (not (= x181 x210)) (and (and (and (and (and (not (= x21 x210)) (and (not (= x21 x110)) (and (not (= x81 x21)) (not (= x21 x181))))) (not (= x21 x204))) (not (= x181 x21))) (not (= x81 x181))) (not (= x110 x181)))) (not (= x204 x181))) (not (= x21 x81))) (not (= x81 x181))) (not (= x110 x81))) (not (= x210 x81))) (not (= x204 x81))) (not (= x110 x21))) (not (= x110 x181))) (not (= x110 x81))) (not (= x210 x110))) (not (= x110 x204)))) (not (= x181 x210))) (not (= x81 x210)))) (not (= x210 x204))) (not (= x204 x21))) (not (= x204 x181))) (not (= x204 x81))))) (and (and (and (= x21 x21) (and (and (and (and (and (and (= x210 (x138 x210 x110)) (and (and (= x204 (x138 x210 x181)) (and (and (= x210 (x138 x110 x204)) (and (and (= x81 x81) (and (= x204 (x138 x110 x81)) (and (= (x138 x110 x181) x181) (and (= (x138 x110 x21) x21) (and (and (and (= x204 x204) (and (= x181 (x138 x81 x81)) (and (and (= x210 (x138 x81 x21)) (and (and (= (x138 x181 x210) x210) (and (= (x138 x181 x110) x181) (and (= x110 (x138 x181 x81)) (and (= (x138 x181 x181) x21) (and (= x81 (x138 x181 x21)) (and (= (x138 x21 x204) x21) (and (and (= (x138 x21 x110) x110) (and (and (= x81 (x138 x21 x181)) (= x181 (x138 x21 x21))) (= x210 x210))) (= (x138 x21 x210) x204)))))))) (= x204 (x138 x181 x204)))) (= (x138 x81 x181) x110)))) (= x21 (x138 x81 x210))) (= x81 (x138 x81 x204))))))) (= x110 (x138 x110 x210)))) (= x110 (x138 x210 x21)))) (= x21 (x138 x210 x81)))) (= (x138 x210 x210) x81)) (= x181 x181)) (= (x138 x204 x21) x204)) (= (x138 x204 x181) x210)) (= x81 (x138 x204 x81)))) (= (x138 x204 x210) x181)) (= (x138 x204 x204) x110))))))))))
(assert (and (and (and (not (= x194 x259)) (and (and (not (= x259 x110)) (and (not (= x194 x110)) (and (and (and (not (= x194 x189)) (and (not (= x189 x110)) (and (and (not (= x142 x259)) (and (and (not (= x189 x142)) (not (= x110 x142))) (not (= x194 x142)))) (not (= x142 x133))))) (not (= x259 x189))) (not (= x189 x133))))) (not (= x133 x110)))) (not (= x194 x133))) (not (= x133 x259))))
(assert (let ((x81 (x138 x189 x189))) (let ((x204 (x138 x81 x189))) (let ((x21 (x138 x204 x189))) (let ((x210 (x138 x21 x81))) (let ((x181 (x138 x210 x204))) (not (and (and (and (and (and (and (= x210 (x138 x204 x181)) (and (= x204 (x138 x204 x21)) (and (= x181 x181) (and (= x81 (x138 x210 x210)) (and (and (and (= x204 (x138 x210 x181)) (and (and (and (and (and (= (x138 x189 x81) x204) (and (= x181 (x138 x189 x181)) (and (and (and (= (x138 x81 x210) x21) (and (and (= x181 (x138 x81 x81)) (and (and (= (x138 x81 x21) x210) (and (= (x138 x181 x204) x204) (and (= (x138 x181 x210) x210) (and (and (and (and (and (and (and (= (x138 x21 x189) x189) (and (= x210 x210) (and (= x181 (x138 x21 x21)) (= (x138 x21 x181) x81)))) (= (x138 x21 x210) x204)) (= (x138 x21 x204) x21)) (= (x138 x181 x21) x81)) (= x21 (x138 x181 x181))) (= x189 (x138 x181 x81))) (= (x138 x181 x189) x181))))) (= (x138 x81 x181) x189))) (= x204 x204))) (= x81 (x138 x81 x204))) (= (x138 x189 x21) x21)))) (= x81 x81)) (= (x138 x189 x210) x189)) (= (x138 x189 x204) x210)) (= (x138 x210 x21) x189))) (= x21 (x138 x210 x81))) (= x210 (x138 x210 x189))))))) (= x81 (x138 x204 x81))) (= x21 x21)) (= x181 (x138 x204 x210))) (= x189 (x138 x204 x204))) (and (not (= x204 x210)) (and (and (not (= x81 x204)) (and (and (not (= x21 x204)) (and (and (and (not (= x210 x81)) (and (and (not (= x21 x210)) (and (not (= x204 x189)) (and (and (not (= x81 x189)) (and (not (= x181 x189)) (and (not (= x189 x21)) (and (not (= x81 x204)) (and (and (and (not (= x181 x81)) (and (not (= x81 x21)) (and (not (= x204 x181)) (and (not (= x181 x210)) (and (and (and (not (= x181 x21)) (and (and (not (= x210 x21)) (and (not (= x189 x21)) (and (not (= x21 x181)) (not (= x81 x21))))) (not (= x204 x21)))) (not (= x81 x181))) (not (= x181 x189))))))) (not (= x81 x189))) (not (= x81 x210))))))) (not (= x189 x210))))) (not (= x181 x210)))) (not (= x189 x210))) (not (= x210 x204)))) (not (= x204 x181)))) (not (= x189 x204))))))))))))
(assert (let ((x203 (x138 x133 x194)) (x173 (x138 x189 x110)) (x202 (x138 x110 x259)) (x45 (x138 x110 x194)) (x6 (x138 x189 x194)) (x186 (x138 x110 x133)) (x182 (x138 x189 x133)) (x127 (x138 x110 x189)) (x185 (x138 x133 x142)) (x210 (x138 x142 x259)) (x204 (x138 x142 x189)) (x237 (x138 x194 x194)) (x39 (x138 x133 x133)) (x42 (x138 x194 x189)) (x208 (x138 x259 x189)) (x181 (x138 x142 x194)) (x156 (x138 x189 x142)) (x195 (x138 x259 x259)) (x116 (x138 x189 x259)) (x71 (x138 x133 x110)) (x21 (x138 x142 x110)) (x198 (x138 x194 x259)) (x86 (x138 x259 x142)) (x114 (x138 x133 x259)) (x81 (x138 x142 x142)) (x24 (x138 x259 x133)) (x17 (x138 x194 x142)) (x175 (x138 x259 x194)) (x169 (x138 x259 x110)) (x46 (x138 x110 x110)) (x111 (x138 x194 x133)) (x70 (x138 x189 x189)) (x253 (x138 x142 x133)) (x217 (x138 x110 x142)) (x130 (x138 x133 x189)) (x176 (x138 x194 x110))) (and (and (and (or (= x114 x133) (or (= x114 x259) (or (= x194 x114) (or (= x114 x110) (or (= x189 x114) (= x142 x114)))))) (and (and (and (or (= x130 x133) (or (= x259 x130) (or (or (= x110 x130) (or (= x189 x130) (= x130 x142))) (= x194 x130)))) (or (or (or (or (or (= x189 x185) (= x185 x142)) (= x110 x185)) (= x194 x185)) (= x259 x185)) (= x185 x133))) (or (= x71 x133) (or (= x259 x71) (or (or (or (= x71 x189) (= x142 x71)) (= x110 x71)) (= x194 x71))))) (or (or (or (= x194 x203) (or (= x203 x110) (or (= x142 x203) (= x203 x189)))) (= x259 x203)) (= x133 x203)))) (or (or (or (= x194 x39) (or (or (= x39 x189) (= x142 x39)) (= x39 x110))) (= x39 x259)) (= x39 x133))) (and (and (and (or (or (or (or (or (= x195 x142) (= x195 x189)) (= x110 x195)) (= x195 x194)) (= x195 x259)) (= x133 x195)) (and (or (or (or (or (or (= x142 x175) (= x175 x189)) (= x110 x175)) (= x194 x175)) (= x175 x259)) (= x133 x175)) (and (and (or (or (or (or (or (= x208 x142) (= x189 x208)) (= x208 x110)) (= x208 x194)) (= x259 x208)) (= x133 x208)) (or (or (or (= x86 x194) (or (= x110 x86) (or (= x142 x86) (= x189 x86)))) (= x86 x259)) (= x133 x86))) (or (= x133 x169) (or (or (= x194 x169) (or (= x110 x169) (or (= x169 x142) (= x169 x189)))) (= x169 x259)))))) (or (= x133 x24) (or (or (or (= x24 x110) (or (= x24 x189) (= x24 x142))) (= x24 x194)) (= x24 x259)))) (and (and (and (and (and (and (and (or (or (or (= x194 x127) (or (or (= x127 x189) (= x127 x142)) (= x110 x127))) (= x127 x259)) (= x133 x127)) (or (= x133 x217) (or (= x259 x217) (or (or (or (= x189 x217) (= x142 x217)) (= x217 x110)) (= x194 x217))))) (or (or (or (or (= x110 x46) (or (= x46 x142) (= x46 x189))) (= x46 x194)) (= x46 x259)) (= x133 x46))) (or (or (or (or (= x110 x45) (or (= x45 x189) (= x142 x45))) (= x45 x194)) (= x259 x45)) (= x45 x133))) (or (= x202 x133) (or (= x202 x259) (or (or (= x110 x202) (or (= x202 x189) (= x202 x142))) (= x194 x202))))) (or (= x133 x186) (or (= x259 x186) (or (= x194 x186) (or (or (= x189 x186) (= x142 x186)) (= x186 x110)))))) (and (and (and (and (or (= x6 x133) (or (or (= x6 x194) (or (or (= x142 x6) (= x189 x6)) (= x110 x6))) (= x259 x6))) (and (and (or (= x70 x133) (or (= x259 x70) (or (or (= x110 x70) (or (= x142 x70) (= x189 x70))) (= x70 x194)))) (or (or (= x156 x259) (or (or (or (= x189 x156) (= x142 x156)) (= x156 x110)) (= x156 x194))) (= x133 x156))) (or (= x173 x133) (or (or (= x194 x173) (or (or (= x189 x173) (= x173 x142)) (= x173 x110))) (= x173 x259))))) (or (or (= x259 x116) (or (or (= x110 x116) (or (= x142 x116) (= x189 x116))) (= x194 x116))) (= x133 x116))) (or (or (or (= x182 x194) (or (= x182 x110) (or (= x142 x182) (= x189 x182)))) (= x182 x259)) (= x182 x133))) (and (or (= x133 x253) (or (= x259 x253) (or (or (= x110 x253) (or (= x189 x253) (= x142 x253))) (= x194 x253)))) (and (and (or (or (or (or (= x181 x110) (or (= x181 x142) (= x189 x181))) (= x181 x194)) (= x259 x181)) (= x133 x181)) (and (and (or (= x204 x133) (or (or (or (= x204 x110) (or (= x189 x204) (= x204 x142))) (= x204 x194)) (= x204 x259))) (or (= x81 x133) (or (= x81 x259) (or (= x81 x194) (or (= x110 x81) (or (= x81 x189) (= x81 x142))))))) (or (or (= x259 x21) (or (= x194 x21) (or (or (= x21 x142) (= x21 x189)) (= x21 x110)))) (= x133 x21)))) (or (= x133 x210) (or (= x259 x210) (or (= x194 x210) (or (= x110 x210) (or (= x210 x142) (= x210 x189)))))))))) (and (and (and (or (or (or (= x237 x194) (or (or (= x189 x237) (= x142 x237)) (= x237 x110))) (= x259 x237)) (= x237 x133)) (and (or (or (= x259 x176) (or (or (or (= x176 x189) (= x142 x176)) (= x110 x176)) (= x194 x176))) (= x176 x133)) (and (or (= x17 x133) (or (= x259 x17) (or (= x17 x194) (or (= x110 x17) (or (= x189 x17) (= x17 x142)))))) (or (or (or (= x42 x194) (or (or (= x42 x189) (= x42 x142)) (= x110 x42))) (= x42 x259)) (= x133 x42))))) (or (= x198 x133) (or (or (or (= x110 x198) (or (= x142 x198) (= x189 x198))) (= x198 x194)) (= x259 x198)))) (or (or (= x259 x111) (or (or (or (= x111 x142) (= x111 x189)) (= x110 x111)) (= x111 x194))) (= x133 x111))))))))
(assert (let ((x81 (x138 x142 x142))) (let ((x204 (x138 x81 x142))) (let ((x21 (x138 x204 x142))) (let ((x210 (x138 x21 x81))) (let ((x181 (x138 x210 x204))) (not (and (and (and (and (= x21 x21) (and (= x81 (x138 x204 x81)) (and (and (and (= x181 x181) (and (= (x138 x210 x210) x81) (and (= (x138 x210 x142) x210) (and (= x21 (x138 x210 x81)) (and (and (and (= (x138 x142 x204) x210) (and (and (= x81 x81) (and (and (= (x138 x142 x181) x181) (and (= x21 (x138 x142 x21)) (and (= (x138 x81 x204) x81) (and (and (= x204 x204) (and (and (= x142 (x138 x81 x181)) (and (and (and (and (= x181 (x138 x181 x142)) (and (and (and (and (= x21 (x138 x21 x204)) (and (= x204 (x138 x21 x210)) (and (= (x138 x21 x142) x142) (and (= x210 x210) (and (= (x138 x21 x21) x181) (= x81 (x138 x21 x181))))))) (= x81 (x138 x181 x21))) (= (x138 x181 x181) x21)) (= x142 (x138 x181 x81)))) (= (x138 x181 x210) x210)) (= (x138 x181 x204) x204)) (= x210 (x138 x81 x21)))) (= (x138 x81 x81) x181))) (= (x138 x81 x210) x21))))) (= (x138 x142 x81) x204))) (= (x138 x142 x210) x142))) (= x142 (x138 x210 x21))) (= x204 (x138 x210 x181))))))) (= x204 (x138 x204 x21))) (= (x138 x204 x181) x210)))) (= (x138 x204 x210) x181)) (= (x138 x204 x204) x142)) (and (and (and (not (= x81 x204)) (and (not (= x204 x181)) (and (not (= x21 x204)) (and (not (= x204 x210)) (and (not (= x210 x142)) (and (and (not (= x181 x210)) (and (and (and (and (and (not (= x142 x181)) (and (and (not (= x81 x204)) (and (and (not (= x142 x81)) (and (and (and (and (not (= x181 x210)) (and (and (not (= x181 x81)) (and (and (not (= x204 x21)) (and (not (= x21 x210)) (and (and (not (= x181 x21)) (not (= x21 x81))) (not (= x142 x21))))) (not (= x21 x181)))) (not (= x181 x142)))) (not (= x181 x204))) (not (= x21 x81))) (not (= x181 x81)))) (not (= x210 x81)))) (not (= x142 x21)))) (not (= x142 x81))) (not (= x142 x210))) (not (= x204 x142))) (not (= x210 x21)))) (not (= x210 x81)))))))) (not (= x142 x204))) (not (= x210 x204)))))))))))
(assert (let ((x81 (x138 x259 x259))) (let ((x204 (x138 x81 x259))) (let ((x21 (x138 x204 x259))) (let ((x210 (x138 x21 x81))) (let ((x181 (x138 x210 x204))) (not (and (and (= x259 (x138 x204 x204)) (and (and (= x21 x21) (and (= x81 (x138 x204 x81)) (and (and (and (and (= (x138 x210 x210) x81) (and (= (x138 x210 x259) x210) (and (and (and (and (= (x138 x259 x204) x210) (and (and (and (= (x138 x259 x81) x204) (and (and (= (x138 x259 x21) x21) (and (= (x138 x81 x204) x81) (and (= (x138 x81 x210) x21) (and (= x204 x204) (and (= x181 (x138 x81 x81)) (and (and (and (and (and (and (= x259 (x138 x181 x81)) (and (= (x138 x181 x181) x21) (and (and (and (= (x138 x21 x210) x204) (and (= (x138 x21 x259) x259) (and (= x210 x210) (and (= (x138 x21 x181) x81) (= (x138 x21 x21) x181))))) (= (x138 x21 x204) x21)) (= (x138 x181 x21) x81)))) (= (x138 x181 x259) x181)) (= x210 (x138 x181 x210))) (= (x138 x181 x204) x204)) (= (x138 x81 x21) x210)) (= (x138 x81 x181) x259))))))) (= (x138 x259 x181) x181))) (= x81 x81)) (= (x138 x259 x210) x259))) (= (x138 x210 x21) x259)) (= x204 (x138 x210 x181))) (= (x138 x210 x81) x21)))) (= x181 x181)) (= (x138 x204 x21) x204)) (= (x138 x204 x181) x210)))) (= x181 (x138 x204 x210)))) (and (and (and (not (= x204 x81)) (and (and (not (= x204 x21)) (and (not (= x210 x204)) (and (and (not (= x81 x210)) (and (not (= x210 x181)) (and (and (not (= x259 x204)) (and (not (= x259 x210)) (and (not (= x81 x259)) (and (not (= x259 x181)) (and (and (not (= x81 x204)) (and (and (not (= x259 x81)) (and (not (= x81 x181)) (and (not (= x81 x21)) (and (not (= x204 x181)) (and (not (= x181 x210)) (and (and (and (not (= x181 x21)) (and (not (= x21 x204)) (and (not (= x21 x210)) (and (and (not (= x21 x81)) (not (= x21 x181))) (not (= x21 x259)))))) (not (= x81 x181))) (not (= x259 x181)))))))) (not (= x210 x81)))) (not (= x259 x21))))))) (not (= x210 x21))))) (not (= x259 x210))))) (not (= x204 x181)))) (not (= x259 x204))) (not (= x210 x204)))))))))))
(assert (let ((x195 (x138 x110 x189)) (x222 (x138 x110 x194)) (x86 (x138 x189 x259)) (x217 (x138 x133 x142)) (x21 (x138 x142 x189)) (x115 (x138 x133 x259)) (x185 (x138 x259 x189)) (x204 (x138 x142 x142)) (x6 (x138 x110 x142)) (x258 (x138 x133 x110)) (x182 (x138 x259 x142)) (x82 (x138 x259 x133)) (x210 (x138 x142 x194)) (x255 (x138 x194 x194)) (x50 (x138 x259 x259)) (x116 (x138 x194 x142)) (x253 (x138 x142 x259)) (x32 (x138 x259 x110)) (x151 (x138 x194 x110)) (x130 (x138 x133 x189)) (x52 (x138 x133 x133)) (x237 (x138 x189 x189)) (x206 (x138 x110 x259)) (x24 (x138 x194 x189)) (x198 (x138 x189 x110)) (x173 (x138 x189 x142)) (x78 (x138 x259 x194)) (x111 (x138 x189 x194)) (x23 (x138 x194 x259)) (x208 (x138 x189 x133)) (x181 (x138 x142 x110)) (x156 (x138 x142 x133)) (x223 (x138 x110 x133)) (x224 (x138 x194 x133)) (x57 (x138 x110 x110)) (x105 (x138 x133 x194))) (let ((x148 (= x189 x156)) (x199 (= x142 x195)) (x14 (= x111 x142)) (x239 (= x133 x52)) (x94 (= x111 x259)) (x221 (= x189 x185)) (x28 (= x253 x189)) (x49 (= x111 x133)) (x60 (= x110 x185)) (x108 (= x110 x206)) (x65 (= x130 x189)) (x174 (= x133 x23)) (x104 (= x110 x24)) (x107 (= x110 x6)) (x134 (= x105 x142)) (x152 (= x142 x255)) (x124 (= x194 x57)) (x93 (= x116 x142)) (x103 (= x173 x133)) (x25 (= x259 x181)) (x39 (= x194 x173)) (x45 (= x204 x259)) (x70 (= x204 x189)) (x30 (= x133 x222)) (x200 (= x130 x142)) (x126 (= x110 x50)) (x236 (= x223 x189)) (x4 (= x259 x222)) (x131 (= x130 x194)) (x68 (= x156 x142)) (x7 (= x224 x189)) (x159 (= x206 x133)) (x140 (= x194 x111)) (x90 (= x133 x6)) (x54 (= x32 x194)) (x160 (= x194 x21)) (x196 (= x110 x198)) (x59 (= x224 x110)) (x139 (= x105 x110)) (x184 (= x110 x78)) (x211 (= x194 x52)) (x257 (= x57 x142)) (x13 (= x208 x110)) (x106 (= x259 x86)) (x164 (= x151 x133)) (x179 (= x133 x50)) (x71 (= x173 x110)) (x11 (= x189 x182)) (x89 (= x189 x78)) (x91 (= x133 x57)) (x119 (= x259 x156)) (x97 (= x259 x130)) (x143 (= x142 x217)) (x80 (= x189 x86)) (x81 (= x142 x204)) (x137 (= x259 x253)) (x161 (= x217 x110)) (x141 (= x23 x110)) (x249 (= x194 x195)) (x129 (= x217 x194)) (x79 (= x181 x189)) (x5 (= x6 x259)) (x169 (= x189 x21)) (x178 (= x52 x189)) (x230 (= x142 x32)) (x218 (= x142 x115)) (x261 (= x110 x86)) (x170 (= x57 x110)) (x15 (= x110 x151)) (x145 (= x142 x258)) (x158 (= x32 x259)) (x233 (= x151 x189)) (x187 (= x223 x142)) (x100 (= x86 x194)) (x180 (= x210 x110)) (x27 (= x116 x133)) (x212 (= x206 x142)) (x216 (= x133 x115)) (x10 (= x259 x237)) (x72 (= x222 x142)) (x8 (= x110 x111)) (x98 (= x206 x189)) (x166 (= x259 x82)) (x120 (= x32 x110)) (x147 (= x78 x142)) (x188 (= x206 x259)) (x109 (= x50 x259)) (x125 (= x222 x189)) (x231 (= x259 x57)) (x51 (= x142 x23)) (x37 (= x194 x253)) (x262 (= x21 x259)) (x192 (= x189 x32)) (x88 (= x115 x194)) (x47 (= x156 x133)) (x234 (= x151 x194)) (x92 (= x181 x110)) (x41 (= x115 x110)) (x150 (= x237 x133)) (x96 (= x189 x6)) (x252 (= x24 x259)) (x29 (= x142 x185)) (x209 (= x173 x259)) (x232 (= x189 x258)) (x162 (= x198 x194)) (x56 (= x52 x110)) (x64 (= x217 x259)) (x77 (= x133 x105)) (x144 (= x142 x151)) (x136 (= x111 x189)) (x36 (= x142 x50)) (x244 (= x255 x259)) (x40 (= x21 x133)) (x34 (= x130 x133)) (x254 (= x52 x259)) (x219 (= x142 x86)) (x58 (= x110 x195)) (x235 (= x210 x259)) (x3 (= x208 x194)) (x75 (= x105 x189)) (x31 (= x253 x133)) (x183 (= x110 x116)) (x240 (= x198 x189)) (x84 (= x82 x189)) (x9 (= x142 x198)) (x203 (= x21 x110)) (x177 (= x133 x198)) (x176 (= x173 x189)) (x17 (= x21 x142)) (x48 (= x258 x110)) (x226 (= x142 x208)) (x227 (= x189 x116)) (x26 (= x194 x50)) (x18 (= x189 x115)) (x61 (= x208 x189)) (x62 (= x50 x189)) (x102 (= x185 x259)) (x153 (= x223 x259)) (x55 (= x255 x189)) (x167 (= x78 x259)) (x247 (= x210 x194)) (x46 (= x204 x194)) (x135 (= x194 x23)) (x168 (= x210 x142)) (x225 (= x110 x130)) (x44 (= x259 x115)) (x154 (= x142 x82)) (x117 (= x182 x259)) (x155 (= x224 x142)) (x241 (= x133 x195)) (x186 (= x173 x142)) (x163 (= x259 x116)) (x193 (= x194 x82)) (x146 (= x110 x223)) (x190 (= x255 x133)) (x33 (= x259 x198)) (x245 (= x23 x189)) (x165 (= x133 x24)) (x114 (= x237 x110)) (x66 (= x151 x259)) (x67 (= x142 x6)) (x53 (= x237 x194)) (x127 (= x204 x110)) (x43 (= x259 x208)) (x69 (= x6 x194)) (x197 (= x156 x194)) (x35 (= x110 x253)) (x215 (= x133 x78)) (x128 (= x24 x189)) (x73 (= x116 x194)) (x22 (= x182 x133)) (x38 (= x194 x182)) (x112 (= x185 x194)) (x95 (= x182 x110)) (x1 (= x142 x253)) (x19 (= x105 x194)) (x248 (= x259 x23)) (x149 (= x181 x194)) (x2 (= x156 x110)) (x228 (= x86 x133)) (x12 (= x142 x182)) (x123 (= x222 x110)) (x175 (= x237 x189)) (x16 (= x224 x133)) (x250 (= x133 x208)) (x74 (= x110 x255)) (x172 (= x133 x185)) (x42 (= x237 x142)) (x202 (= x204 x133)) (x246 (= x24 x142)) (x63 (= x189 x217)) (x132 (= x133 x181)) (x220 (= x217 x133)) (x243 (= x194 x206)) (x171 (= x194 x24)) (x113 (= x133 x32)) (x118 (= x195 x259)) (x201 (= x224 x194)) (x20 (= x110 x82)) (x99 (= x82 x133)) (x121 (= x258 x133)) (x205 (= x105 x259)) (x213 (= x57 x189)) (x229 (= x181 x142)) (x242 (= x78 x194)) (x191 (= x52 x142)) (x238 (= x194 x223)) (x207 (= x189 x210)) (x214 (= x210 x133)) (x256 (= x133 x223)) (x157 (= x255 x194)) (x260 (= x194 x222)) (x251 (= x259 x258)) (x122 (= x224 x259)) (x87 (= x258 x194)) (x83 (= x189 x195))) (and (and (and (and (and (and (or x56 (or (or x139 (or (or x225 x161) x48)) x41)) (or x56 (or (or (or (or x13 x2) x146) x59) x20))) (and (and (or (or (or x155 (or (or x226 x68) x187)) x154) x191) (or x191 (or x218 (or x134 (or x145 (or x200 x143)))))) (and (or (or (or (or x236 (or x61 x148)) x7) x84) x178) (or x178 (or (or x75 (or x232 (or x65 x63))) x18))))) (and (or x211 (or x88 (or (or x87 (or x129 x131)) x19))) (or (or (or (or (or x197 x3) x238) x201) x193) x211))) (and (or (or x44 (or (or x251 (or x64 x97)) x205)) x254) (or x254 (or x166 (or (or (or x43 x119) x153) x122))))) (and (or x239 (or (or x77 (or (or x34 x220) x121)) x216)) (or (or (or x16 (or (or x47 x250) x256)) x99) x239))) (and (and (and (or (or (or (or x113 (or x172 x22)) x215) x179) x99) (or x216 (or (or x174 (or (or x31 x228) x159)) x179))) (and (and (and (and (or x41 (or (or (or x108 (or x35 x261)) x141) x126)) (or (or x126 (or x184 (or (or x95 x60) x120))) x20)) (and (and (or x84 (or x62 (or x89 (or x192 (or x11 x221))))) (or (or (or x245 (or (or x80 x28) x98)) x62) x18)) (and (or (or (or x147 (or (or x29 x12) x230)) x36) x154) (or x218 (or (or x51 (or (or x219 x1) x212)) x36))))) (and (or (or (or x135 (or x243 (or x37 x100))) x26) x88) (or x193 (or x26 (or x242 (or x54 (or x112 x38))))))) (and (or (or (or x167 (or (or x102 x117) x158)) x109) x166) (or x44 (or (or x248 (or (or x106 x137) x188)) x109))))) (and (and (and (or (or (or (or x164 (or x27 x165)) x190) x174) x16) (or (or (or (or x30 (or x214 x49)) x190) x215) x77)) (and (and (or (or x167 (or x244 (or x4 (or x94 x235)))) x205) (or (or (or x244 (or x66 (or x252 x163))) x248) x122)) (and (and (or (or (or (or (or x171 x73) x234) x157) x135) x201) (or x19 (or (or x157 (or x260 (or x140 x247))) x242))) (and (and (or (or (or (or (or x183 x104) x15) x74) x141) x59) (or x139 (or x184 (or x74 (or (or x8 x180) x123))))) (and (and (or (or (or x55 (or x233 (or x227 x128))) x245) x7) (or (or x89 (or x55 (or (or x207 x136) x125))) x75)) (and (or (or (or x152 (or x72 (or x14 x168))) x147) x134) (or (or (or (or x144 (or x246 x93)) x152) x51) x155))))))) (and (and (and (and (or x250 (or x228 (or (or (or x150 x103) x177) x49))) (or x34 (or x172 (or x165 (or x241 (or x40 x150)))))) (and (and (and (or x3 (or (or (or x162 (or x39 x53)) x140) x100)) (or (or x112 (or x171 (or (or x53 x160) x249))) x131)) (and (and (or (or (or x8 (or (or x71 x114) x196)) x261) x13) (or x225 (or (or x104 (or (or x114 x203) x58)) x60))) (and (and (or x226 (or x219 (or x14 (or (or x42 x186) x9)))) (or x200 (or (or (or x199 (or x17 x42)) x246) x29))) (and (or x61 (or x80 (or x136 (or x240 (or x176 x175))))) (or (or (or x128 (or (or x169 x175) x83)) x221) x65))))) (and (or x43 (or (or (or x33 (or x209 x10)) x94) x106)) (or (or x102 (or x252 (or x118 (or x10 x262)))) x97)))) (and (and (or (or x22 (or (or (or x103 x202) x90) x27)) x220) (or (or x31 (or (or x132 (or x40 x202)) x214)) x47)) (and (and (and (or x197 (or x37 (or x247 (or x149 (or x160 x46))))) (or (or (or (or x69 (or x39 x46)) x73) x38) x129)) (and (and (or (or (or (or (or x127 x71) x107) x183) x95) x161) (or x2 (or x35 (or (or x92 (or x127 x203)) x180)))) (and (and (or (or (or (or x229 (or x81 x17)) x168) x1) x68) (or (or (or (or x67 (or x81 x186)) x93) x12) x143)) (and (or x148 (or x28 (or x207 (or x79 (or x169 x70))))) (or (or (or x227 (or (or x70 x176) x96)) x11) x63))))) (and (or x119 (or x137 (or (or (or x262 x45) x25) x235))) (or x64 (or x117 (or (or (or x209 x45) x5) x163))))))) (and (and (or (or (or x164 (or (or x177 x132) x91)) x113) x121) (or (or x159 (or (or (or x90 x241) x91) x30)) x256)) (and (and (or x153 (or (or (or x231 (or x5 x118)) x4) x188)) (or (or x158 (or (or (or x25 x33) x231) x66)) x251)) (and (and (and (and (or x236 (or x98 (or x125 (or (or x96 x83) x213)))) (or (or (or (or x213 (or x79 x240)) x233) x192) x232)) (and (or (or x230 (or x144 (or (or x229 x9) x257))) x145) (or x187 (or x212 (or x72 (or (or x67 x199) x257)))))) (and (or (or x120 (or x15 (or (or x92 x196) x170))) x48) (or (or x108 (or x123 (or (or x58 x107) x170))) x146))) (and (or x238 (or (or x260 (or x124 (or x249 x69))) x243)) (or x87 (or (or (or x124 (or x162 x149)) x234) x54)))))))))))))
(assert (let ((x81 (x138 x133 x133))) (let ((x204 (x138 x81 x133))) (let ((x21 (x138 x204 x133))) (let ((x210 (x138 x21 x81))) (let ((x181 (x138 x210 x204))) (not (and (and (= (x138 x204 x204) x133) (and (= x181 (x138 x204 x210)) (and (and (and (and (= (x138 x204 x21) x204) (and (and (and (and (= (x138 x210 x81) x21) (and (= x204 (x138 x210 x181)) (and (and (and (= x133 (x138 x133 x210)) (and (= x81 x81) (and (= x204 (x138 x133 x81)) (and (= x181 (x138 x133 x181)) (and (and (and (and (= x204 x204) (and (= (x138 x81 x81) x181) (and (and (= (x138 x81 x21) x210) (and (= (x138 x181 x204) x204) (and (and (and (and (and (and (= x21 (x138 x21 x204)) (and (= x204 (x138 x21 x210)) (and (= x133 (x138 x21 x133)) (and (and (= (x138 x21 x181) x81) (= (x138 x21 x21) x181)) (= x210 x210))))) (= x81 (x138 x181 x21))) (= x21 (x138 x181 x181))) (= (x138 x181 x81) x133)) (= x181 (x138 x181 x133))) (= (x138 x181 x210) x210)))) (= x133 (x138 x81 x181))))) (= x21 (x138 x81 x210))) (= (x138 x81 x204) x81)) (= x21 (x138 x133 x21))))))) (= x210 (x138 x133 x204))) (= x133 (x138 x210 x21))))) (= x210 (x138 x210 x133))) (= (x138 x210 x210) x81)) (= x181 x181))) (= x210 (x138 x204 x181))) (= x81 (x138 x204 x81))) (= x21 x21)))) (and (and (and (not (= x204 x81)) (and (and (not (= x21 x204)) (and (not (= x204 x210)) (and (and (not (= x81 x210)) (and (not (= x210 x181)) (and (not (= x210 x21)) (and (not (= x133 x204)) (and (and (not (= x81 x133)) (and (not (= x181 x133)) (and (and (not (= x81 x204)) (and (and (and (and (not (= x81 x21)) (and (and (not (= x210 x181)) (and (and (and (not (= x21 x181)) (and (and (and (not (= x133 x21)) (and (not (= x21 x181)) (not (= x81 x21)))) (not (= x21 x210))) (not (= x21 x204)))) (not (= x81 x181))) (not (= x133 x181)))) (not (= x204 x181)))) (not (= x181 x81))) (not (= x81 x133))) (not (= x210 x81)))) (not (= x21 x133))))) (not (= x210 x133))))))) (not (= x133 x210))))) (not (= x181 x204)))) (not (= x204 x133))) (not (= x210 x204)))))))))))
(assert (and (not (= (x138 x133 x133) x133)) (and (not (= (x138 x259 x259) x259)) (and (and (and (not (= (x138 x142 x142) x142)) (not (= (x138 x189 x189) x189))) (not (= x110 (x138 x110 x110)))) (not (= (x138 x194 x194) x194))))))
(check-sat)
(exit)
